; benchmark generated from python API
(set-info :status unknown)
(declare-fun B () Real)
(declare-fun C () Real)
(declare-fun S_3 () Real)
(declare-fun S_1 () Real)
(declare-fun A_0 () Real)
(declare-fun S_4 () Real)
(declare-fun L_0 () Real)
(declare-fun S_2 () Real)
(declare-fun S_5 () Real)
(declare-fun S_0 () Real)
(declare-fun L0 () Real)
(declare-fun A_2 () Real)
(declare-fun A_1 () Real)
(declare-fun L_2 () Real)
(declare-fun L_1 () Real)
(declare-fun A_3 () Real)
(declare-fun A_4 () Real)
(declare-fun A_5 () Real)
(assert
 (let (($x13576 (not (>= (+ C (* (- 1.0) B)) 0.0))))
 (let (($x42 (>= L0 0.0)))
 (let (($x950 (>= C 5.0)))
 (let (($x14727 (<= 0.0 (+ (* (- 2.0) C) (* (- 1.0) B) (* (- 1.0) S_2) S_5))))
 (let (($x14275 (<= (+ (* (- 2.0) C) (* (- 1.0) L_0) A_2 (* (- 1.0) S_0)) 0.0)))
 (let (($x14613 (not $x14275)))
 (let (($x13530 (<= (+ (* (- 1.0) L_0) C A_2 (* (- 1.0) S_4)) 0.0)))
 (let (($x16882 (or $x13530 (not (<= (+ A_2 (* (- 1.0) A_1) (* (- 1.0) C)) 0.0)) $x14613)))
 (let (($x14479 (<= 0.0 (+ L_0 (* (- 3.0) C) (* (- 1.0) B) S_5 (* (- 1.0) A_0)))))
 (let (($x13404 (<= 0.0 (+ L_0 C S_1 (* (- 1.0) A_2)))))
 (let (($x14693 (not $x13404)))
 (let (($x13555 (<= (+ (* (- 1.0) L_0) (* 2.0 C) A_2 (* (- 1.0) S_5)) 0.0)))
 (let (($x14255 (<= (+ (* (- 1.0) L_0) A_1 (* (- 1.0) S_5) (* 3.0 C)) 0.0)))
 (let (($x21851 (or $x13555 (<= (+ (* 4.0 C) S_0 (* (- 1.0) S_5)) 0.0) $x14255)))
 (let (($x14465 (<= 0.0 (+ (* (- 4.0) C) (* (- 1.0) B) (* (- 1.0) S_0) S_5))))
 (let (($x3948 (<= (+ (* (- 1.0) L_0) A_2 (* (- 1.0) S_3)) 0.0)))
 (let (($x21868 (or $x3948 (<= (+ (* 2.0 C) S_0 (* (- 1.0) S_3)) 0.0) (<= (+ (* (- 1.0) L_0) A_1 C (* (- 1.0) S_3)) 0.0))))
 (let (($x14632 (<= 0.0 (+ (* (- 1.0) C) (* (- 1.0) B) S_5 (* (- 1.0) S_3)))))
 (let (($x14472 (<= 0.0 (+ (* (- 3.0) C) (* (- 1.0) B) (* (- 1.0) S_1) S_5))))
 (let (($x14366 (<= 0.0 (+ L_0 (* (- 2.0) C) (* (- 1.0) A_1) (* (- 1.0) B) S_5))))
 (let (($x14044 (<= (+ (* (- 1.0) L_0) A_1 (* (- 1.0) S_4) (* 2.0 C)) 0.0)))
 (let (($x13748 (<= (+ (* 3.0 C) S_0 (* (- 1.0) S_4)) 0.0)))
 (let (($x13361 (<= (+ A_2 (* (- 1.0) A_1) (* (- 1.0) C)) 0.0)))
 (let (($x21805 (or (<= (+ A_1 (* (- 1.0) L_0) (* (- 1.0) S_2)) 0.0) (<= (+ C (* (- 1.0) S_2) S_0) 0.0))))
 (let (($x13860 (<= 0.0 (+ L_0 (* (- 1.0) C) (* (- 1.0) B) (* (- 1.0) A_2) S_5))))
 (let (($x59 (= L_1 L_0)))
 (let (($x21294 (or $x59 (not (<= (+ A_1 (* (- 1.0) L_1) (* 2.0 C)) S_5)))))
 (let (($x21744 (or $x59 (<= S_5 (+ A_1 (* (- 1.0) L_1) (* (- 1.0) B) (* 4.0 C))))))
 (let (($x22026 (or $x59 (<= S_4 (+ A_1 (* (- 1.0) L_1) (* (- 1.0) B) (* 3.0 C))))))
 (let (($x21427 (or $x59 (<= S_3 (+ A_1 (* (- 1.0) L_1) (* (- 1.0) B) (* 2.0 C))))))
 (let ((?x373 (* (- 1.0) C)))
 (let ((?x572 (* (- 1.0) L_2)))
 (let ((?x645 (* (- 1.0) B)))
 (let ((?x13161 (+ ?x645 ?x572 A_2 ?x373)))
 (let (($x13189 (<= (+ A_1 (* (- 1.0) L_0)) ?x13161)))
 (let (($x21714 (or (= (+ ?x373 A_2 ?x572 ?x645 (* (- 1.0) A_1) L_0) 0.0) (not $x13189))))
 (let (($x69 (= L_2 L_1)))
 (let (($x976 (not (<= L_1 L_0))))
 (let (($x12997 (or $x69 $x976 (<= (+ A_1 (* (- 1.0) L_0) L_2 (* (- 1.0) A_2) C) 0.0))))
 (let (($x1198 (not (= L_1 L_2))))
 (let ((?x705 (* (- 1.0) L_0)))
 (let ((?x1072 (+ A_0 ?x705)))
 (let ((?x466 (* (- 1.0) L_1)))
 (let ((?x457 (+ ?x645 ?x466 A_1 ?x373)))
 (let (($x41 (>= L_0 L0)))
 (let (($x131 (>= S_1 S_0)))
 (let (($x134 (>= S_2 S_1)))
 (let (($x137 (>= S_3 S_2)))
 (let (($x140 (>= S_4 S_3)))
 (let (($x143 (>= S_5 S_4)))
 (let (($x145 (>= A_1 A_0)))
 (let (($x146 (>= A_2 A_1)))
 (let (($x148 (>= A_4 A_3)))
 (let (($x149 (>= A_5 A_4)))
 (and (<= (+ A_2 ?x572) S_5) $x149 $x148 $x146 $x145 $x143 $x140 $x137 $x134 $x131 $x41 (>= S_3 (+ A_2 ?x572 ?x645)) (>= S_2 (+ A_1 ?x466 ?x645)) (or $x59 $x976) (or $x69 (<= S_2 (+ A_2 ?x572 ?x645))) (<= ?x457 ?x1072) (>= S_0 (+ ?x645 ?x466 A_1 (* (- 2.0) C))) (>= S_1 ?x457) (or $x59 (<= S_0 ?x457)) (not (<= (+ A_3 ?x572) S_5)) (or (>= S_5 (+ A_2 ?x466 ?x645 (* 2.0 C))) $x1198) (or $x69 (not (<= L_2 L_1))) (>= S_5 (+ A_2 ?x572 ?x645 (* 2.0 C))) (or $x59 $x69 (= (+ A_2 ?x572) (+ A_1 ?x466 C))) (or $x59 (<= S_1 (+ A_1 ?x466 ?x645))) (or $x69 (<= S_3 (+ A_2 ?x572 ?x645 C))) (or $x69 (<= S_4 (+ A_2 ?x572 ?x645 (* 2.0 C)))) (or $x69 (not (<= (+ A_2 ?x572 C) S_5))) (>= S_4 (+ A_2 ?x572 ?x645 C)) (or $x69 (<= S_5 (+ A_2 ?x572 ?x645 (* 3.0 C)))) (or $x69 (<= S_1 ?x13161)) $x12997 (>= S_2 ?x13161) (or $x69 (<= S_0 (+ ?x645 ?x572 A_2 (* (- 2.0) C))) $x13189) (>= S_1 (+ ?x645 ?x572 A_2 (* (- 2.0) C))) (>= S_0 (+ ?x645 ?x572 A_2 (* (- 3.0) C))) (<= (+ ?x645 ?x572 A_2 (* (- 2.0) C)) ?x1072) $x21714 $x21427 (or $x59 (<= S_2 (+ A_1 ?x466 ?x645 C))) $x22026 $x21744 (>= S_3 (+ A_1 ?x466 ?x645 C)) (>= S_4 (+ A_1 ?x466 ?x645 (* 2.0 C))) $x21294 (>= S_5 (+ A_1 ?x466 ?x645 (* 3.0 C))) (or $x59 $x1198 $x13361) (<= (+ (* (- 1.0) A_1) L_0 S_1) 0.0) (or $x3948 (<= (+ C S_1 (* (- 1.0) S_3)) 0.0)) (not $x13860) (<= (+ L_0 (* (- 2.0) C) S_2 (* (- 1.0) A_0)) 0.0) (<= (+ (* (- 2.0) C) S_2 (* (- 1.0) S_1)) 0.0) (<= (+ L_0 (* (- 1.0) A_1) S_4 (* (- 3.0) C)) 0.0) (<= (+ (* (- 4.0) C) (* (- 1.0) S_2) S_5) 0.0) (<= (+ L_0 (* (- 1.0) A_1) S_5 (* (- 4.0) C)) 0.0) (<= (+ L_0 ?x373 (* (- 1.0) A_2) S_3) 0.0) (<= (+ (* (- 2.0) C) S_1 (* (- 1.0) S_0)) 0.0) (<= (+ L_0 (* (- 1.0) A_1) (* (- 2.0) C) S_3) 0.0) (or $x13748 $x14044 $x14275) $x21805 (or $x13361 $x13748 $x14044) (not (<= 0.0 (+ ?x645 S_5 (* (- 1.0) S_4)))) (not $x14366) (<= (+ L_0 (* (- 1.0) A_1) S_2 ?x373) 0.0) (<= (+ (* (- 4.0) C) (* (- 1.0) S_1) S_4) 0.0) (not $x14472) (not $x14632) (or $x13404 (<= (+ (* 2.0 C) S_1 (* (- 1.0) S_4)) 0.0)) (or $x13530 $x14693) (<= (+ L_0 (* (- 3.0) C) (* (- 1.0) A_2) S_5) 0.0) $x21868 (<= (+ (* (- 5.0) C) L_0 S_5 (* (- 1.0) A_0)) 0.0) (<= (+ (* (- 6.0) C) (* (- 1.0) S_0) S_5) 0.0) (<= (+ L_0 S_2 (* (- 1.0) A_2)) 0.0) (<= (+ (* (- 3.0) C) S_2 (* (- 1.0) S_0)) 0.0) (<= (+ (* (- 3.0) C) L_0 S_3 (* (- 1.0) A_0)) 0.0) (<= (+ L_0 (* (- 2.0) C) (* (- 1.0) A_2) S_4) 0.0) (not $x14465) (<= (+ (* (- 4.0) C) (* (- 1.0) S_0) S_3) 0.0) (<= (+ (* (- 2.0) C) (* (- 1.0) S_2) S_3) 0.0) (or $x13404 (<= (+ (* 3.0 C) S_1 (* (- 1.0) S_5)) 0.0)) $x21851 (<= (+ (* (- 5.0) C) (* (- 1.0) S_0) S_4) 0.0) (or $x13555 $x14693) (not $x14479) (<= (+ (* (- 5.0) C) (* (- 1.0) S_1) S_5) 0.0) (or (<= (+ A_1 (* (- 1.0) A_2) C) 0.0) $x13530 $x14613) $x16882 (not $x14727) $x950 $x42 (<= (+ L_0 S_0 (* (- 1.0) A_0)) 0.0) (<= (+ L_0 ?x373 S_1 (* (- 1.0) A_0)) 0.0) (<= (+ C S_2 (* (- 1.0) S_4)) 0.0) (<= (+ (* 2.0 C) S_2 (* (- 1.0) S_5)) 0.0) (<= (+ C (* (- 1.0) S_5) S_3) 0.0) (<= (+ (* (- 2.0) C) S_5 (* (- 1.0) S_4)) 0.0) (<= (+ (* (- 3.0) C) S_5 (* (- 1.0) S_3)) 0.0) (<= (+ (* (- 2.0) C) S_4 (* (- 1.0) S_3)) 0.0) (<= (+ (* (- 3.0) C) (* (- 1.0) S_2) S_4) 0.0) (<= (+ L_0 (* (- 4.0) C) S_4 (* (- 1.0) A_0)) 0.0) (<= (+ (* (- 3.0) C) (* (- 1.0) S_1) S_3) 0.0) $x13576))))))))))))))))))))))))))))))))))))))))))))))))))))))))
(check-sat)
